c Created with the Wolfram Language : www.wolfram.com
c 
p edge 100 1010
e 1 5
e 2 6
e 4 6
e 6 7
e 2 8
e 6 9
e 7 9
e 8 9
e 2 10
e 9 10
e 5 11
e 10 11
e 6 12
e 11 12
e 8 13
e 6 14
e 7 14
e 1 15
e 2 15
e 4 15
e 5 16
e 8 16
e 10 16
e 11 16
e 2 17
e 4 17
e 9 17
e 12 17
e 16 17
e 1 18
e 9 18
e 12 18
e 15 18
e 3 19
e 18 19
e 4 20
e 5 20
e 10 20
e 2 21
e 3 21
e 8 21
e 11 21
e 13 21
e 19 21
e 7 22
e 9 22
e 11 22
e 14 22
e 15 22
e 6 23
e 8 23
e 11 23
e 21 23
e 1 24
e 3 24
e 7 24
e 17 24
e 19 24
e 18 25
e 19 25
e 21 25
e 3 26
e 4 26
e 8 26
e 11 26
e 13 26
e 14 26
e 20 26
e 3 27
e 10 27
e 17 27
e 22 27
e 6 28
e 8 28
e 13 28
e 15 28
e 21 28
e 22 28
e 2 29
e 3 29
e 6 29
e 8 29
e 24 29
e 3 30
e 4 30
e 6 30
e 9 30
e 10 30
e 15 30
e 16 30
e 29 30
e 3 31
e 15 31
e 16 31
e 17 31
e 24 31
e 3 32
e 5 32
e 7 32
e 11 32
e 12 32
e 13 32
e 14 32
e 18 32
e 27 32
e 2 33
e 3 33
e 7 33
e 11 33
e 14 33
e 19 33
e 25 33
e 2 34
e 3 34
e 4 34
e 6 34
e 8 34
e 9 34
e 15 34
e 18 34
e 1 35
e 2 35
e 3 35
e 13 35
e 17 35
e 20 35
e 22 35
e 1 36
e 4 36
e 8 36
e 9 36
e 10 36
e 13 36
e 15 36
e 21 36
e 22 36
e 33 36
e 11 37
e 13 37
e 15 37
e 20 37
e 27 37
e 29 37
e 33 37
e 34 37
e 10 38
e 11 38
e 19 38
e 28 38
e 31 38
e 34 38
e 35 38
e 1 39
e 5 39
e 7 39
e 13 39
e 20 39
e 33 39
e 36 39
e 37 39
e 3 40
e 13 40
e 14 40
e 26 40
e 27 40
e 28 40
e 32 40
e 35 40
e 1 41
e 2 41
e 3 41
e 5 41
e 6 41
e 9 41
e 13 41
e 27 41
e 31 41
e 32 41
e 33 41
e 40 41
e 3 42
e 6 42
e 9 42
e 16 42
e 17 42
e 31 42
e 32 42
e 40 42
e 1 43
e 4 43
e 15 43
e 18 43
e 20 43
e 23 43
e 30 43
e 35 43
e 1 44
e 3 44
e 6 44
e 10 44
e 11 44
e 14 44
e 17 44
e 18 44
e 24 44
e 31 44
e 34 44
e 1 45
e 3 45
e 5 45
e 9 45
e 15 45
e 17 45
e 18 45
e 19 45
e 36 45
e 41 45
e 4 46
e 13 46
e 22 46
e 43 46
e 44 46
e 14 47
e 16 47
e 21 47
e 22 47
e 23 47
e 25 47
e 30 47
e 33 47
e 40 47
e 42 47
e 2 48
e 3 48
e 15 48
e 16 48
e 22 48
e 23 48
e 28 48
e 40 48
e 42 48
e 47 48
e 2 49
e 14 49
e 20 49
e 33 49
e 37 49
e 45 49
e 4 50
e 5 50
e 10 50
e 11 50
e 12 50
e 13 50
e 26 50
e 27 50
e 29 50
e 41 50
e 42 50
e 1 51
e 8 51
e 10 51
e 22 51
e 26 51
e 28 51
e 30 51
e 32 51
e 33 51
e 38 51
e 41 51
e 45 51
e 2 52
e 9 52
e 13 52
e 20 52
e 22 52
e 29 52
e 33 52
e 40 52
e 50 52
e 4 53
e 5 53
e 6 53
e 7 53
e 8 53
e 9 53
e 26 53
e 28 53
e 31 53
e 33 53
e 3 54
e 7 54
e 23 54
e 29 54
e 48 54
e 3 55
e 4 55
e 5 55
e 29 55
e 37 55
e 38 55
e 44 55
e 49 55
e 1 56
e 16 56
e 19 56
e 20 56
e 22 56
e 29 56
e 32 56
e 43 56
e 48 56
e 11 57
e 13 57
e 17 57
e 19 57
e 23 57
e 36 57
e 38 57
e 39 57
e 42 57
e 44 57
e 51 57
e 24 58
e 31 58
e 32 58
e 35 58
e 42 58
e 43 58
e 44 58
e 45 58
e 54 58
e 4 59
e 7 59
e 8 59
e 11 59
e 19 59
e 20 59
e 22 59
e 27 59
e 31 59
e 32 59
e 39 59
e 40 59
e 46 59
e 47 59
e 51 59
e 53 59
e 54 59
e 2 60
e 5 60
e 6 60
e 7 60
e 13 60
e 14 60
e 16 60
e 36 60
e 37 60
e 38 60
e 42 60
e 50 60
e 53 60
e 55 60
e 56 60
e 59 60
e 2 61
e 3 61
e 9 61
e 12 61
e 13 61
e 14 61
e 17 61
e 22 61
e 29 61
e 32 61
e 43 61
e 45 61
e 52 61
e 54 61
e 14 62
e 16 62
e 20 62
e 24 62
e 25 62
e 31 62
e 41 62
e 43 62
e 47 62
e 48 62
e 56 62
e 58 62
e 61 62
e 1 63
e 3 63
e 8 63
e 10 63
e 14 63
e 15 63
e 18 63
e 22 63
e 23 63
e 29 63
e 30 63
e 33 63
e 41 63
e 42 63
e 46 63
e 51 63
e 52 63
e 58 63
e 4 64
e 5 64
e 7 64
e 15 64
e 25 64
e 26 64
e 27 64
e 39 64
e 42 64
e 46 64
e 47 64
e 51 64
e 54 64
e 59 64
e 60 64
e 1 65
e 26 65
e 33 65
e 39 65
e 41 65
e 43 65
e 44 65
e 51 65
e 54 65
e 55 65
e 57 65
e 58 65
e 59 65
e 60 65
e 61 65
e 62 65
e 64 65
e 2 66
e 7 66
e 9 66
e 19 66
e 44 66
e 49 66
e 50 66
e 53 66
e 1 67
e 13 67
e 16 67
e 20 67
e 21 67
e 23 67
e 26 67
e 38 67
e 44 67
e 49 67
e 51 67
e 52 67
e 58 67
e 62 67
e 21 68
e 27 68
e 34 68
e 39 68
e 44 68
e 47 68
e 50 68
e 53 68
e 55 68
e 58 68
e 67 68
e 7 69
e 18 69
e 26 69
e 41 69
e 46 69
e 50 69
e 51 69
e 58 69
e 59 69
e 60 69
e 2 70
e 8 70
e 12 70
e 37 70
e 38 70
e 43 70
e 51 70
e 61 70
e 62 70
e 67 70
e 2 71
e 4 71
e 11 71
e 14 71
e 15 71
e 19 71
e 30 71
e 31 71
e 35 71
e 38 71
e 39 71
e 42 71
e 51 71
e 62 71
e 64 71
e 66 71
e 8 72
e 12 72
e 13 72
e 15 72
e 24 72
e 28 72
e 37 72
e 41 72
e 48 72
e 59 72
e 66 72
e 4 73
e 5 73
e 13 73
e 16 73
e 20 73
e 25 73
e 28 73
e 34 73
e 39 73
e 51 73
e 65 73
e 66 73
e 67 73
e 3 74
e 8 74
e 17 74
e 20 74
e 26 74
e 28 74
e 29 74
e 30 74
e 32 74
e 58 74
e 71 74
e 7 75
e 10 75
e 12 75
e 13 75
e 21 75
e 22 75
e 33 75
e 34 75
e 35 75
e 40 75
e 41 75
e 43 75
e 48 75
e 49 75
e 51 75
e 52 75
e 53 75
e 59 75
e 72 75
e 2 76
e 5 76
e 8 76
e 9 76
e 13 76
e 16 76
e 17 76
e 18 76
e 20 76
e 26 76
e 30 76
e 32 76
e 46 76
e 47 76
e 53 76
e 55 76
e 60 76
e 61 76
e 71 76
e 72 76
e 2 77
e 5 77
e 7 77
e 19 77
e 21 77
e 27 77
e 33 77
e 35 77
e 39 77
e 47 77
e 63 77
e 70 77
e 71 77
e 74 77
e 1 78
e 3 78
e 8 78
e 14 78
e 23 78
e 24 78
e 40 78
e 43 78
e 48 78
e 49 78
e 56 78
e 69 78
e 70 78
e 71 78
e 74 78
e 75 78
e 12 79
e 15 79
e 17 79
e 22 79
e 27 79
e 29 79
e 30 79
e 35 79
e 45 79
e 47 79
e 49 79
e 50 79
e 56 79
e 73 79
e 76 79
e 1 80
e 5 80
e 14 80
e 15 80
e 17 80
e 20 80
e 40 80
e 42 80
e 3 81
e 4 81
e 9 81
e 10 81
e 12 81
e 18 81
e 19 81
e 20 81
e 21 81
e 24 81
e 32 81
e 40 81
e 45 81
e 57 81
e 58 81
e 59 81
e 63 81
e 64 81
e 66 81
e 69 81
e 3 82
e 5 82
e 18 82
e 23 82
e 25 82
e 28 82
e 47 82
e 54 82
e 58 82
e 66 82
e 67 82
e 72 82
e 74 82
e 76 82
e 80 82
e 81 82
e 22 83
e 31 83
e 49 83
e 51 83
e 62 83
e 65 83
e 71 83
e 72 83
e 7 84
e 9 84
e 31 84
e 44 84
e 47 84
e 50 84
e 55 84
e 58 84
e 63 84
e 69 84
e 72 84
e 73 84
e 2 85
e 4 85
e 6 85
e 7 85
e 32 85
e 41 85
e 51 85
e 58 85
e 68 85
e 76 85
e 3 86
e 23 86
e 26 86
e 29 86
e 31 86
e 32 86
e 34 86
e 45 86
e 54 86
e 57 86
e 63 86
e 69 86
e 70 86
e 71 86
e 74 86
e 75 86
e 79 86
e 83 86
e 85 86
e 3 87
e 5 87
e 9 87
e 16 87
e 20 87
e 21 87
e 22 87
e 23 87
e 25 87
e 31 87
e 33 87
e 40 87
e 41 87
e 43 87
e 63 87
e 65 87
e 74 87
e 76 87
e 81 87
e 1 88
e 12 88
e 13 88
e 16 88
e 19 88
e 34 88
e 36 88
e 41 88
e 46 88
e 49 88
e 53 88
e 54 88
e 58 88
e 61 88
e 62 88
e 65 88
e 66 88
e 70 88
e 71 88
e 74 88
e 78 88
e 85 88
e 3 89
e 6 89
e 17 89
e 22 89
e 23 89
e 41 89
e 43 89
e 59 89
e 61 89
e 65 89
e 73 89
e 74 89
e 75 89
e 81 89
e 88 89
e 4 90
e 5 90
e 10 90
e 11 90
e 20 90
e 25 90
e 28 90
e 32 90
e 33 90
e 38 90
e 46 90
e 53 90
e 55 90
e 58 90
e 62 90
e 63 90
e 64 90
e 72 90
e 76 90
e 80 90
e 87 90
e 89 90
e 4 91
e 23 91
e 26 91
e 29 91
e 36 91
e 37 91
e 41 91
e 46 91
e 47 91
e 53 91
e 57 91
e 65 91
e 69 91
e 75 91
e 88 91
e 1 92
e 3 92
e 5 92
e 12 92
e 19 92
e 28 92
e 32 92
e 37 92
e 42 92
e 43 92
e 44 92
e 45 92
e 46 92
e 48 92
e 65 92
e 66 92
e 70 92
e 83 92
e 85 92
e 87 92
e 89 92
e 5 93
e 9 93
e 13 93
e 18 93
e 22 93
e 27 93
e 34 93
e 42 93
e 43 93
e 49 93
e 61 93
e 67 93
e 71 93
e 76 93
e 77 93
e 79 93
e 3 94
e 8 94
e 15 94
e 17 94
e 19 94
e 29 94
e 36 94
e 42 94
e 47 94
e 49 94
e 53 94
e 60 94
e 63 94
e 64 94
e 70 94
e 72 94
e 73 94
e 76 94
e 81 94
e 82 94
e 84 94
e 87 94
e 91 94
e 1 95
e 11 95
e 14 95
e 15 95
e 17 95
e 20 95
e 23 95
e 29 95
e 31 95
e 32 95
e 33 95
e 37 95
e 45 95
e 52 95
e 61 95
e 63 95
e 67 95
e 69 95
e 74 95
e 88 95
e 89 95
e 90 95
e 94 95
e 3 96
e 4 96
e 6 96
e 8 96
e 15 96
e 32 96
e 35 96
e 36 96
e 37 96
e 41 96
e 49 96
e 56 96
e 60 96
e 64 96
e 65 96
e 73 96
e 75 96
e 77 96
e 78 96
e 82 96
e 85 96
e 94 96
e 23 97
e 26 97
e 30 97
e 36 97
e 37 97
e 41 97
e 45 97
e 46 97
e 50 97
e 57 97
e 59 97
e 62 97
e 72 97
e 79 97
e 82 97
e 84 97
e 85 97
e 86 97
e 88 97
e 93 97
e 95 97
e 7 98
e 11 98
e 23 98
e 25 98
e 29 98
e 34 98
e 35 98
e 39 98
e 40 98
e 43 98
e 46 98
e 51 98
e 60 98
e 64 98
e 65 98
e 76 98
e 86 98
e 87 98
e 90 98
e 92 98
e 1 99
e 7 99
e 9 99
e 10 99
e 11 99
e 15 99
e 18 99
e 19 99
e 23 99
e 30 99
e 31 99
e 32 99
e 36 99
e 42 99
e 50 99
e 52 99
e 55 99
e 58 99
e 60 99
e 62 99
e 70 99
e 71 99
e 85 99
e 89 99
e 95 99
e 3 100
e 5 100
e 6 100
e 13 100
e 35 100
e 36 100
e 40 100
e 52 100
e 53 100
e 54 100
e 57 100
e 61 100
e 62 100
e 63 100
e 65 100
e 69 100
e 70 100
e 72 100
e 78 100
e 81 100
e 88 100
e 91 100
e 93 100
